nNurses = 184;
nHours = 25;
minHours = 5;
maxHours = 13;
maxConsec = 9;
maxPresence = 23;
demand = [38, 39, 38, 38, 39, 39, 35, 37, 32, 34, 30, 27, 28, 26, 29, 25, 24, 23, 27, 28, 27, 27, 25, 23, 19];
